NAME 
ROWS
 N  OBJ
 L  R0      
 L  R1      
 E  R2      
 E  R3      
 E  R4      
 E  R5      
 E  R6      
 E  R7      
 E  R8      
 E  R9      
 E  R10     
 E  R11     
 E  R12     
 E  R13     
 E  R14     
 E  R15     
 E  R16     
 E  R17     
 E  R18     
 E  R19     
 E  R20     
 E  R21     
 E  R22     
 E  R23     
 E  R24     
 E  R25     
 E  R26     
COLUMNS
    MARKER    'MARKER'                 'INTORG'
    I0(11)    OBJ       134
    I0(11)    R0        128
    I0(11)    R1        -135
    I0(11)    R2        18
    I0(11)    R3        16
    I0(11)    R6        12
    I0(11)    R8        10
    I0(11)    R10       12
    I0(11)    R13       13
    I0(11)    R14       12
    I0(11)    R15       5
    I0(11)    R26       1
    I1(15)    OBJ       -157
    I1(15)    R0        125
    I1(15)    R1        101
    I1(15)    R2        7
    I1(15)    R4        11
    I1(15)    R5        14
    I1(15)    R7        18
    I1(15)    R8        10
    I1(15)    R9        5
    I1(15)    R10       13
    I1(15)    R12       5
    I1(15)    R13       5
    I1(15)    R14       9
    I1(15)    R15       13
    I1(15)    R16       16
    I1(15)    R26       1
    I2(13)    OBJ       1
    I2(13)    R0        -39
    I2(13)    R1        199
    I2(13)    R2        -1
    I2(13)    R3        1
    I2(13)    R4        17
    I2(13)    R7        9
    I2(13)    R9        16
    I2(13)    R10       2
    I2(13)    R12       2
    I2(13)    R13       2
    I2(13)    R14       16
    I2(13)    R16       -1
    I2(13)    R26       1
    I3(11)    OBJ       138
    I3(11)    R0        -142
    I3(11)    R1        -65
    I3(11)    R2        10
    I3(11)    R3        16
    I3(11)    R5        19
    I3(11)    R8        -1
    I3(11)    R9        -1
    I3(11)    R10       18
    I3(11)    R14       15
    I3(11)    R15       15
    I3(11)    R26       1
    I4(14)    OBJ       -62
    I4(14)    R0        -162
    I4(14)    R1        -196
    I4(14)    R2        11
    I4(14)    R3        11
    I4(14)    R5        8
    I4(14)    R6        3
    I4(14)    R7        18
    I4(14)    R8        6
    I4(14)    R9        16
    I4(14)    R12       15
    I4(14)    R13       15
    I4(14)    R14       8
    I4(14)    R15       11
    I4(14)    R26       1
    I5(12)    OBJ       109
    I5(12)    R0        127
    I5(12)    R1        187
    I5(12)    R2        11
    I5(12)    R5        14
    I5(12)    R6        7
    I5(12)    R7        9
    I5(12)    R10       2
    I5(12)    R13       10
    I5(12)    R14       1
    I5(12)    R15       10
    I5(12)    R16       6
    I5(12)    R26       1
    I6(14)    OBJ       -133
    I6(14)    R0        149
    I6(14)    R1        -123
    I6(14)    R2        5
    I6(14)    R3        12
    I6(14)    R5        18
    I6(14)    R6        8
    I6(14)    R9        17
    I6(14)    R10       5
    I6(14)    R11       12
    I6(14)    R12       5
    I6(14)    R13       9
    I6(14)    R14       17
    I6(14)    R16       12
    I6(14)    R26       1
    I7(13)    OBJ       190
    I7(13)    R0        -181
    I7(13)    R1        50
    I7(13)    R2        17
    I7(13)    R3        8
    I7(13)    R6        19
    I7(13)    R8        17
    I7(13)    R11       -1
    I7(13)    R12       15
    I7(13)    R13       11
    I7(13)    R14       2
    I7(13)    R15       6
    I7(13)    R16       4
    I7(13)    R26       1
    I8(13)    OBJ       35
    I8(13)    R0        -194
    I8(13)    R1        89
    I8(13)    R2        -1
    I8(13)    R3        12
    I8(13)    R6        17
    I8(13)    R7        9
    I8(13)    R8        5
    I8(13)    R9        12
    I8(13)    R11       5
    I8(13)    R12       7
    I8(13)    R13       9
    I8(13)    R14       1
    I8(13)    R26       1
    I9(13)    OBJ       -112
    I9(13)    R0        106
    I9(13)    R1        27
    I9(13)    R2        1
    I9(13)    R3        11
    I9(13)    R4        19
    I9(13)    R5        18
    I9(13)    R8        8
    I9(13)    R10       11
    I9(13)    R12       14
    I9(13)    R13       4
    I9(13)    R14       17
    I9(13)    R15       1
    I9(13)    R26       1
    I10(12)   OBJ       131
    I10(12)   R0        153
    I10(12)   R1        -95
    I10(12)   R2        18
    I10(12)   R3        5
    I10(12)   R4        9
    I10(12)   R8        6
    I10(12)   R10       1
    I10(12)   R12       5
    I10(12)   R13       5
    I10(12)   R14       10
    I10(12)   R16       1
    I10(12)   R26       1
    I11(12)   OBJ       -52
    I11(12)   R0        -154
    I11(12)   R1        84
    I11(12)   R2        11
    I11(12)   R4        1
    I11(12)   R5        15
    I11(12)   R8        15
    I11(12)   R9        -1
    I11(12)   R11       14
    I11(12)   R13       1
    I11(12)   R15       15
    I11(12)   R16       2
    I11(12)   R26       1
    I12(11)   OBJ       -9
    I12(11)   R0        -183
    I12(11)   R1        63
    I12(11)   R2        3
    I12(11)   R7        16
    I12(11)   R8        13
    I12(11)   R9        12
    I12(11)   R10       6
    I12(11)   R11       14
    I12(11)   R14       12
    I12(11)   R15       16
    I12(11)   R26       1
    I13(15)   OBJ       -153
    I13(15)   R0        -84
    I13(15)   R1        105
    I13(15)   R2        -1
    I13(15)   R3        11
    I13(15)   R4        5
    I13(15)   R7        17
    I13(15)   R8        1
    I13(15)   R10       13
    I13(15)   R11       16
    I13(15)   R12       18
    I13(15)   R13       7
    I13(15)   R14       2
    I13(15)   R15       18
    I13(15)   R16       5
    I13(15)   R26       1
    I14(13)   OBJ       24
    I14(13)   R0        -113
    I14(13)   R1        32
    I14(13)   R2        14
    I14(13)   R3        5
    I14(13)   R4        17
    I14(13)   R5        1
    I14(13)   R6        4
    I14(13)   R8        18
    I14(13)   R9        19
    I14(13)   R10       11
    I14(13)   R12       14
    I14(13)   R13       6
    I14(13)   R26       1
    MARKER    'MARKER'                 'INTEND'
    C15(19)   OBJ       1
    C15(19)   R0        1
    C15(19)   R1        -5
    C15(19)   R2        8
    C15(19)   R3        13
    C15(19)   R4        9
    C15(19)   R7        9
    C15(19)   R8        8
    C15(19)   R9        7
    C15(19)   R10       12
    C15(19)   R11       18
    C15(19)   R13       11
    C15(19)   R14       16
    C15(19)   R15       16
    C15(19)   R16       6
    C15(19)   R17       6
    C15(19)   R18       10
    C15(19)   R21       18
    C15(19)   R23       4
    C15(19)   R24       -1
    C16(17)   OBJ       4
    C16(17)   R0        -2
    C16(17)   R1        1
    C16(17)   R2        14
    C16(17)   R3        14
    C16(17)   R4        7
    C16(17)   R11       6
    C16(17)   R12       16
    C16(17)   R13       8
    C16(17)   R14       17
    C16(17)   R15       6
    C16(17)   R16       13
    C16(17)   R18       5
    C16(17)   R21       3
    C16(17)   R22       1
    C16(17)   R23       6
    C16(17)   R24       9
    C16(17)   R25       15
    C17(14)   OBJ       6
    C17(14)   R0        9
    C17(14)   R1        1
    C17(14)   R3        6
    C17(14)   R4        17
    C17(14)   R5        4
    C17(14)   R6        4
    C17(14)   R9        13
    C17(14)   R11       13
    C17(14)   R14       17
    C17(14)   R17       18
    C17(14)   R20       -1
    C17(14)   R21       16
    C17(14)   R23       18
    C17(14)   R24       7
    C18(17)   OBJ       1
    C18(17)   R0        -7
    C18(17)   R1        8
    C18(17)   R3        10
    C18(17)   R6        14
    C18(17)   R8        -1
    C18(17)   R9        9
    C18(17)   R10       17
    C18(17)   R13       17
    C18(17)   R14       15
    C18(17)   R15       -1
    C18(17)   R16       7
    C18(17)   R17       17
    C18(17)   R18       10
    C18(17)   R19       -1
    C18(17)   R23       1
    C18(17)   R24       3
    C18(17)   R25       16
    C19(18)   OBJ       8
    C19(18)   R0        7
    C19(18)   R1        4
    C19(18)   R2        6
    C19(18)   R3        6
    C19(18)   R4        3
    C19(18)   R5        8
    C19(18)   R6        19
    C19(18)   R7        18
    C19(18)   R8        16
    C19(18)   R9        10
    C19(18)   R11       2
    C19(18)   R13       13
    C19(18)   R15       9
    C19(18)   R16       7
    C19(18)   R19       14
    C19(18)   R20       -1
    C19(18)   R21       4
    C19(18)   R24       12
    C20(18)   OBJ       8
    C20(18)   R0        4
    C20(18)   R2        10
    C20(18)   R3        17
    C20(18)   R4        8
    C20(18)   R6        -1
    C20(18)   R8        6
    C20(18)   R10       14
    C20(18)   R11       14
    C20(18)   R12       3
    C20(18)   R15       18
    C20(18)   R16       13
    C20(18)   R17       8
    C20(18)   R20       12
    C20(18)   R21       14
    C20(18)   R22       15
    C20(18)   R23       14
    C20(18)   R24       6
    C20(18)   R25       1
    C21(18)   OBJ       4
    C21(18)   R0        6
    C21(18)   R1        -5
    C21(18)   R2        5
    C21(18)   R3        2
    C21(18)   R4        10
    C21(18)   R5        3
    C21(18)   R6        17
    C21(18)   R7        6
    C21(18)   R8        4
    C21(18)   R10       16
    C21(18)   R12       7
    C21(18)   R13       1
    C21(18)   R15       10
    C21(18)   R18       10
    C21(18)   R20       11
    C21(18)   R22       6
    C21(18)   R23       12
    C21(18)   R24       5
    C22(18)   OBJ       -9
    C22(18)   R0        -10
    C22(18)   R1        -8
    C22(18)   R2        5
    C22(18)   R4        18
    C22(18)   R5        15
    C22(18)   R6        11
    C22(18)   R7        16
    C22(18)   R8        17
    C22(18)   R11       16
    C22(18)   R12       13
    C22(18)   R13       2
    C22(18)   R15       13
    C22(18)   R16       17
    C22(18)   R17       -1
    C22(18)   R20       16
    C22(18)   R22       9
    C22(18)   R23       6
    C22(18)   R24       -1
    C23(19)   OBJ       9
    C23(19)   R0        7
    C23(19)   R1        -8
    C23(19)   R2        1
    C23(19)   R3        -1
    C23(19)   R5        15
    C23(19)   R6        8
    C23(19)   R7        18
    C23(19)   R8        9
    C23(19)   R11       5
    C23(19)   R12       16
    C23(19)   R13       9
    C23(19)   R14       13
    C23(19)   R15       -1
    C23(19)   R16       15
    C23(19)   R17       4
    C23(19)   R19       6
    C23(19)   R21       1
    C23(19)   R22       2
    C23(19)   R23       5
    C24(11)   OBJ       8
    C24(11)   R0        -3
    C24(11)   R1        1
    C24(11)   R2        18
    C24(11)   R7        13
    C24(11)   R9        -1
    C24(11)   R10       10
    C24(11)   R11       11
    C24(11)   R12       15
    C24(11)   R16       2
    C24(11)   R17       19
    C24(11)   R18       7
    C25(1)    R2        1
    C26(1)    R3        1
    C27(1)    R4        1
    C28(1)    R5        1
    C29(1)    R6        1
    C30(1)    R7        1
    C31(1)    R8        1
    C32(1)    R9        1
    C33(1)    R10       1
    C34(1)    R11       1
    C35(1)    R12       1
    C36(1)    R13       1
    C37(1)    R14       1
    C38(1)    R15       1
    C39(1)    R16       1
    C40(1)    R17       1
    C41(1)    R18       1
    C42(1)    R19       1
    C43(1)    R20       1
    C44(1)    R21       1
    C45(1)    R22       1
    C46(1)    R23       1
    C47(1)    R24       1
    C48(1)    R25       1
    C49(1)    R26       1
RHS
    RHS1      R0        1.1752941176470586e+02
    RHS1      R1        -9.9176470588235318e+01
    RHS1      R2        62
    RHS1      R3        80
    RHS1      R4        66
    RHS1      R5        92
    RHS1      R6        76
    RHS1      R7        94
    RHS1      R8        53
    RHS1      R9        89
    RHS1      R10       84
    RHS1      R11       92
    RHS1      R12       93
    RHS1      R13       88
    RHS1      R14       58
    RHS1      R15       96
    RHS1      R16       79
    RHS1      R17       59
    RHS1      R18       68
    RHS1      R19       81
    RHS1      R20       65
    RHS1      R21       62
    RHS1      R22       75
    RHS1      R23       94
    RHS1      R24       66
    RHS1      R25       85
    RHS1      R26       5
BOUNDS
 UP BND1      I0(11)    1
 UP BND1      I1(15)    1
 UP BND1      I2(13)    1
 UP BND1      I3(11)    1
 UP BND1      I4(14)    1
 UP BND1      I5(12)    1
 UP BND1      I6(14)    1
 UP BND1      I7(13)    1
 UP BND1      I8(13)    1
 UP BND1      I9(13)    1
 UP BND1      I10(12)   1
 UP BND1      I11(12)   1
 UP BND1      I12(11)   1
 UP BND1      I13(15)   1
 UP BND1      I14(13)   1
ENDATA
